NAME : n100w140.004.854.tour
COMMENT : Length = 854
COMMENT : Found by LKH [Keld Helsgaun] Tue May  2 05:52:32 2017
TYPE : TOUR
DIMENSION : 101
TOUR_SECTION
1
38
36
77
46
84
94
101
66
68
85
9
39
61
57
20
73
48
87
50
42
86
15
54
11
53
72
56
92
78
47
79
49
91
30
4
97
28
59
10
55
44
98
27
75
26
71
96
25
12
74
64
62
58
60
14
31
65
80
2
40
8
29
32
45
6
76
7
51
93
41
70
34
82
13
88
17
22
89
21
24
63
23
67
19
52
18
16
43
83
33
81
5
37
69
95
100
35
90
3
99
-1
EOF
